PROBLEM NAME: eil51_n17
KNAPSACK DATA TYPE: multiple strongly correlated
DIMENSION: 17
NUMBER OF ITEMS: 16
CAPACITY OF KNAPSACK: 6565
MIN SPEED: 0.1
MAX SPEED: 1
RENTING RATIO: 11.62
EDGE_WEIGHT_TYPE: CEIL_2D
NODE_COORD_SECTION	(INDEX, X, Y):
1	52	64
2	40	30
3	17	63
4	17	33
5	13	13
6	42	57
7	8	52
8	43	67
9	58	27
10	38	46
11	46	10
12	32	22
13	59	15
14	5	64
15	39	10
16	32	39
17	48	28
ITEMS SECTION	(INDEX, PROFIT, WEIGHT, ASSIGNED NODE NUMBER):
1	1091	891	8
2	1067	867	3
3	1008	808	14
4	927	727	7
5	910	710	4
6	772	572	5
7	634	434	12
8	631	431	15
9	583	383	11
10	543	343	13
11	481	281	9
12	438	138	17
13	418	218	2
14	412	212	16
15	316	116	10
16	291	91	6
